Crypto/instances/samples/hf_n32/hf_n32_cnf04.sol
c DPLL-like Solver for max-min SAT
f file hf_n32_cnf04.cnf
p cnf 32 220
s max  220 8 -7 5 -6 -22 -18 12 11 -31 9 -15 -14 -32 13 -4 -25 -3 1 -2 -29 -16 -28 -10 -30 -23 -24 -26 -17 -19 -27 -21 -20
s min  192 9 12 10 11 -19 17 -16 -24 15 14 32 28 -13 -20 23 -27 31 -22 8 -21 18 -30 -26 25 29 -1 2 -3 4 5 6 7